&control
    calculation = 'scf'
    prefix = 'NaCl'
    pseudo_dir = 'pseudos/SSSP_1.3.0_PBE_efficiency/'
    outdir = './tmp/'
/

&system
    ibrav = 0
    nat = 8
    ntyp = 2
    ecutwfc = 40.0
    ecutrho = 320.0
/

&electrons
/

ATOMIC_SPECIES
Na 22.98976928 Na_pbe_v1.5.uspp.F.UPF
Cl 35.453 Cl_pbe_v1.4.uspp.F.UPF

ATOMIC_POSITIONS {angstrom}
Na 0.0 0.0 0.0
Na -1.7248537842590896e-16 2.8169 2.8169
Na 2.8169 0.0 2.8169
Na 2.8169 2.8169 3.449707568518179e-16
Cl 2.8169 2.8169 2.8169
Cl 2.8169 0.0 1.7248537842590896e-16
Cl -1.7248537842590896e-16 2.8169 1.7248537842590896e-16
Cl 0.0 0.0 2.8169

CELL_PARAMETERS {angstrom}
5.6338 0.0 3.449707568518179e-16
-3.449707568518179e-16 5.6338 3.449707568518179e-16
0.0 0.0 5.6338

K_POINTS {automatic}
4 4 4 0 0 0