Can you generate the Quantum Espresso input file for compound Ba1 Ti1 O3 for energy calculation             for PBE functional and efficiency mode?             The name of the parent folder with pseudopotentials is pseudos.            Determine the path to the folder with the correct pseudopotentials.            Get the list of names of files with pseudopotentials for the compound.            The directory with cutoffs is pseudo_cutoffs.             Read the structure file structure_files/BaTiO3_ICSD_019801.cif to determine formula, atomic positions and unit cell vectors.            Choose a conventional unit cell if True is False, and convert it to primitive cell if True is True.             Check that the energy cutoff and density cutoff are not larger than the maximum cutoff values             for pseudopotentials used.            Now generate the Quantum Espresso input file for Ba1 Ti1 O3.

pseudos/SSSP_1.3.0_PBE_efficiency/
["Ba.pbe-spn-kjpaw_psl.1.0.0.UPF", "O.pbe-n-kjpaw_psl.0.1.UPF", "ti_pbe_v1.4.uspp.F.UPF"]
{"max_ecutwfc": 30.0, "max_ecutrho": 240.0}
Ba1 Ti1 O3
Ba 0.0 0.0 0.0
Ti 1.9987999999999997 1.9988 2.0496276000000004
O 1.9987999999999997 1.9988 0.09279810000000024
O -1.2239120110678648e-16 1.9988 2.0415582000000003
O 1.9988 0.0 2.0415582000000003

3.9976 0.0 2.4478240221357295e-16
-2.4478240221357295e-16 3.9976 2.4478240221357295e-16
0.0 0.0 4.0347

Based on the provided information, here is the Quantum Espresso input file for the compound Ba1 Ti1 O3 using the PBE functional and efficiency mode:

```plaintext
&CONTROL
    calculation = 'scf'
    prefix = 'BaTiO3'
    outdir = './out'
    pseudo_dir = 'pseudos/SSSP_1.3.0_PBE_efficiency/'
    verbosity = 'high'
/

&SYSTEM
    ibrav = 0
    nat = 5
    ntyp = 3
    ecutwfc = 30.0
    ecutrho = 240.0
/

&ELECTRONS
    conv_thr = 1.0d-8
    mixing_beta = 0.7
/

ATOMIC_SPECIES
    Ba 137.327 Ba.pbe-spn-kjpaw_psl.1.0.0.UPF
    Ti 47.867 ti_pbe_v1.4.uspp.F.UPF
    O  15.999 O.pbe-n-kjpaw_psl.0.1.UPF

CELL_PARAMETERS (angstrom)
3.9976 0.0 2.4478240221357295e-16
-2.4478240221357295e-16 3.9976 2.4478240221357295e-16
0.0 0.0 4.0347

ATOMIC_POSITIONS (angstrom)
Ba 0.0 0.0 0.0
Ti 1.9987999999999997 1.9988 2.0496276000000004
O 1.9987999999999997 1.9988 0.09279810000000024
O -1.2239120110678648e-16 1.9988 2.0415582000000003
O 1.9988 0.0 2.0415582000000003

K_POINTS automatic
6 6 6 1 1 1
```

### Explanation:
1. **&CONTROL**: Specifies the control parameters.
   - `calculation = 'scf'`: A single point energy calculation.
   - `prefix = 'BaTiO3'`: Prefix for generated files.
   - `outdir = './out'`: Directory for output files.
   - `pseudo_dir = 'pseudos/SSSP_1.3.0_PBE_efficiency/'`: Directory for pseudopotentials.
   - `verbosity = 'high'`: High verbosity level for detailed output.

2. **&SYSTEM**: Defines the system parameters.
   - `ibrav = 0`: Free-form input for the unit cell.
   - `nat = 5`: Number of atoms.
   - `ntyp = 3`: Number of types of atoms.
   - `ecutwfc = 30.0`: Energy cutoff for wavefunction.
   - `ecutrho = 240.0`: Energy cutoff for charge density.

3. **&ELECTRONS**: Specifies electronic settings.
   - `conv_thr = 1.0d-8`: Convergence threshold.
   - `mixing_beta = 0.7`: Mixing factor for self-consistency.

4. **ATOMIC_SPECIES**: Lists the atomic species and their pseudopotentials.
   - `Ba 137.327 Ba.pbe-spn-kjpaw_psl.1.0.0.UPF`: Barium.
   - `Ti 47.867 ti_pbe_v1.4.uspp.F.UPF`: Titanium.
   - `O  15.999 O.pbe-n-kjpaw_psl.0.1.UPF`: Oxygen.

5. **CELL_PARAMETERS**: Defines the unit cell vectors in angstroms.

6. **ATOMIC_POSITIONS**: Lists the atomic positions in the unit cell in angstroms.

7. **K_POINTS**: Specifies the k-point grid for Brillouin zone sampling.
   - `6 6 6 1 1 1`: A 6x6x6 grid with no shifts.

This input file is configured to perform a single point energy calculation using Quantum Espresso for the given compound and parameters.
