Can you generate the Quantum Espresso input file for compound Si2 for energy calculation             for PBE functional and efficiency mode?             The name of the parent folder with pseudopotentials is pseudos.            Determine the path to the folder with the correct pseudopotentials.            Get the list of names of files with pseudopotentials for the compound.            The directory with cutoffs is pseudo_cutoffs.             Read the structure file structure_files/Si_ICSD_051688.cif to determine formula, atomic positions and unit cell vectors.            Choose a conventional unit cell if True is False, and convert it to primitive cell if True is True.             Check that the energy cutoff and density cutoff are not larger than the maximum cutoff values             for pseudopotentials used.            Now generate the Quantum Espresso input file for Si2.

pseudos/SSSP_1.3.0_PBE_efficiency/

["Si.pbe-n-rrkjus_psl.1.0.0.UPF"]

Si8
Si 1.3576325 1.3576325 1.3576325000000002
Si 0.0 0.0 0.0
Si 1.3576324999999998 4.0728975 4.072897500000001
Si -1.662620295543419e-16 2.715265 2.715265
Si 4.0728975 1.3576325 4.072897500000001
Si 2.715265 0.0 2.715265
Si 4.0728975 4.0728975 1.3576325000000005
Si 2.715265 2.715265 3.325240591086838e-16

5.43053 0.0 3.325240591086838e-16
-3.325240591086838e-16 5.43053 3.325240591086838e-16
0.0 0.0 5.43053


{"max_ecutwfc": 30.0, "max_ecutrho": 240.0}
The path to the folder with the correct pseudopotentials for PBE efficiency mode is: `pseudos/SSSP_1.3.0_PBE_efficiency/`.

The list of names of files with pseudopotentials for the compound Si is: `Si.pbe-n-rrkjus_psl.1.0.0.UPF`.

The formula of the compound is Si2.
The atomic positions in Angstrom are:
- Si 1: (1.3576325, 1.3576325, 1.3576325)
- Si 2: (0.0, 0.0, 0.0)
- Si 3: (1.3576325, 4.0728975, 4.0728975)
- Si 4: (0.0, 0.0, 0.0)
- Si 5: (4.0728975, 1.3576325, 4.0728975)
- Si 6: (0.0, 0.0, 0.0)
- Si 7: (4.0728975, 4.0728975, 1.3576325)
- Si 8: (0.0, 0.0, 0.0)

The unit cell vectors in Angstrom are:
- a1: (5.43053, 0.0, 0.0)
- a2: (0.0, 5.43053, 0.0)
- a3: (0.0, 0.0, 5.43053)

The maximum energy cutoff (ecutwfc) allowed is 30.0 Ry, and the maximum density cutoff (ecutrho) allowed is 240.0 Ry for the pseudopotentials used.

Now, let's generate the Quantum Espresso input file for compound Si2.
Here is the Quantum Espresso input file for compound Si2 with the provided information:

```plaintext
&CONTROL
    calculation = 'scf'
    restart_mode = 'from_scratch'
    prefix = 'Si2'
    pseudo_dir = 'pseudos/SSSP_1.3.0_PBE_efficiency/'
    outdir = './out/'
    verbosity = 'high'
    tprnfor = .true.
    tstress = .true.
/
&SYSTEM
    ibrav = 0
    nat = 8
    ntyp = 1
    ecutwfc = 30.0
    ecutrho = 240.0
    occupations = 'smearing'
    smearing = 'mv'
    degauss = 0.02
/
&ELECTRONS
    conv_thr = 1.0e-8
/
ATOMIC_SPECIES
    Si 28.085 Si.pbe-n-rrkjus_psl.1.0.0.UPF
ATOMIC_POSITIONS {angstrom}
    Si 1 1.3576325 1.3576325 1.3576325
    Si 2 0.0 0.0 0.0
    Si 3 1.3576325 4.0728975 4.0728975
    Si 4 0.0 0.0 0.0
    Si 5 4.0728975 1.3576325 4.0728975
    Si 6 0.0 0.0 0.0
    Si 7 4.0728975 4.0728975 1.3576325
    Si 8 0.0 0.0 0.0
K_POINTS {automatic}
    4 4 4 0 0 0
```

You can use this input file to perform an energy calculation for compound Si2 using Quantum Espresso.
