Can you generate the Quantum Espresso input file for compound Ba1 Ti1 O3 for energy calculation             for PBE functional and efficiency mode?             The name of the parent folder with pseudopotentials is pseudos.            Determine the path to the folder with the correct pseudopotentials.            Get the list of names of files with pseudopotentials for the compound.            The directory with cutoffs is pseudo_cutoffs.             Read the structure file structure_files/BaTiO3_ICSD_019801.cif to determine formula, atomic positions and unit cell vectors.            Choose a conventional unit cell if True is False, and convert it to primitive cell if True is True.             Check that the energy cutoff and density cutoff are not larger than the maximum cutoff values             for pseudopotentials used.            Now generate the Quantum Espresso input file for Ba1 Ti1 O3.

pseudos/SSSP_1.3.0_PBE_efficiency/

["Ba.pbe-spn-kjpaw_psl.1.0.0.UPF", "O.pbe-n-kjpaw_psl.0.1.UPF", "ti_pbe_v1.4.uspp.F.UPF"]

Ba1 Ti1 O3

Ba 0.0 0.0 0.0
Ti 1.9987999999999997 1.9988 2.0496276000000004
O 1.9987999999999997 1.9988 0.09279810000000024
O -1.2239120110678648e-16 1.9988 2.0415582000000003
O 1.9988 0.0 2.0415582000000003

3.9976 0.0 2.4478240221357295e-16
-2.4478240221357295e-16 3.9976 2.4478240221357295e-16
0.0 0.0 4.0347


{"max_ecutwfc": 30.0, "max_ecutrho": 240.0}
The path to the folder with the correct pseudopotentials is: pseudos/SSSP_1.3.0_PBE_efficiency/

The list of names of files with pseudopotentials for the compound BaTiO3 is:
1. Ba.pbe-spn-kjpaw_psl.1.0.0.UPF
2. O.pbe-n-kjpaw_psl.0.1.UPF
3. ti_pbe_v1.4.uspp.F.UPF

The formula of the compound BaTiO3 is Ba1 Ti1 O3.

The atomic positions in the unit cell are:
- Ba 0.0 0.0 0.0
- Ti 1.9988 1.9988 2.0496
- O 1.9988 1.9988 0.0928
- O 0.0 1.9988 2.0416
- O 1.9988 0.0 2.0416

The unit cell vectors are:
- 3.9976 0.0 0.0
- 0.0 3.9976 0.0
- 0.0 0.0 4.0347

The maximum energy cutoff (ecutwfc) allowed is 30.0 Ry and the maximum density cutoff (ecutrho) allowed is 240.0 Ry. 

Now, let's generate the Quantum Espresso input file for Ba1 Ti1 O3 with the provided information.
Here is the Quantum Espresso input file for the single point energy calculation of Ba1 Ti1 O3 using the PBE functional in efficiency mode:

```plaintext
&CONTROL
    calculation = 'scf',
    prefix = 'BaTiO3',
    pseudo_dir = 'pseudos/SSSP_1.3.0_PBE_efficiency/',
    outdir = './',
    verbosity = 'high',
    tprnfor = .true.
    disk_io = 'low',
    wf_collect = .true.
/

&SYSTEM
    ibrav = 0,
    nat = 5,
    ntyp = 3,
    ecutwfc = 30.0,
    ecutrho = 240.0,
    occupations = 'smearing',
    smearing = 'mv',
    degauss = 0.02
/

&ELECTRONS
/

ATOMIC_SPECIES
   Ba 137.327 Ba.pbe-spn-kjpaw_psl.1.0.0.UPF
   O 15.999 O.pbe-n-kjpaw_psl.0.1.UPF
   Ti 47.867 ti_pbe_v1.4.uspp.F.UPF

ATOMIC_POSITIONS {angstrom}
   Ba 0.0 0.0 0.0
   Ti 1.9988 1.9988 2.0496
   O 1.9988 1.9988 0.0928
   O 0.0 1.9988 2.0416
   O 1.9988 0.0 2.0416

K_POINTS {automatic}
   4 4 4 0 0 0
```

You can use this input file for your Quantum Espresso calculation.
