Can you generate the Quantum Espresso input file for compound Li3 Co3 O6 for energy calculation             for PBE functional and efficiency mode?             The name of the parent folder with pseudopotentials is pseudos.            Determine the list of pseudopotential files.            The directory with cutoffs is pseudo_cutoffs. Read the structure file structure_files/ICSD_CollCode51182.cif for atomic positions and unit cell vectors.            Choose a conventional unit cell if False is False, and convert it to primitive cell if False is True.             Determine the path to the folder with the correct pseudopotentials.            Get the list of names of files with pseudopotentials for the compound.            Check that the energy cutoff and density cutoff are not larger than the maximum cutoff values             for pseudopotentials used.{"max_ecutwfc": 40.0, "max_ecutrho": 320.0}Li3 Co3 O6Li 0.0 0.0 0.0
Li 1.40805 0.8129380465324526 4.684533333333333
Li 1.6313062012329737e-16 1.6258760930649052 9.369066666666665
Co 0.0 0.0 7.0268
Co 1.40805 0.8129380465324526 11.711333333333332
Co 1.6313062012329737e-16 1.6258760930649052 2.3422666666666663
O 0.0 0.0 10.687622264
O 0.0 0.0 3.365977736
O 1.40805 0.8129380465324526 1.3185555973333332
O 1.40805 0.8129380465324526 8.050511069333334
O 1.6313062012329737e-16 1.6258760930649052 6.003088930666666
O 1.6313062012329737e-16 1.6258760930649052 12.735044402666666
2.8161 0.0 1.7243639255394308e-16
-1.4080499999999998 2.438814139597358 1.7243639255394308e-16
0.0 0.0 14.0536
pseudos/SSSP_1.3.0_PBE_efficiency/["li_pbe_v1.4.uspp.F.UPF", "Co_pbe_v1.2.uspp.F.UPF", "O.pbe-n-kjpaw_psl.0.1.UPF"]Based on the provided information and results from the tools, here is the Quantum Espresso input file for a single-point energy calculation for the compound Li3Co3O6, using the PBE functional and efficiency mode:

### Quantum Espresso Input File ###

```plaintext
&control
    calculation = 'scf'
    restart_mode = 'from_scratch'
    prefix = 'Li3Co3O6'
    pseudo_dir = 'pseudos/SSSP_1.3.0_PBE_efficiency/'
    outdir = './out'
/

&system
    ibrav = 0
    nat = 12
    ntyp = 3
    ecutwfc = 40.0
    ecutrho = 320.0
/

&electrons
    mixing_beta = 0.7
    conv_thr = 1.0d-8
/

ATOMIC_SPECIES
Li 6.94 li_pbe_v1.4.uspp.F.UPF
Co 58.93 Co_pbe_v1.2.uspp.F.UPF
O  16.00 O.pbe-n-kjpaw_psl.0.1.UPF

CELL_PARAMETERS (angstrom)
2.8161 0.0 1.7243639255394308e-16
-1.4080499999999998 2.438814139597358 1.7243639255394308e-16
0.0 0.0 14.0536

ATOMIC_POSITIONS (angstrom)
Li 0.0 0.0 0.0
Li 1.40805 0.8129380465324526 4.684533333333333
Li 1.6313062012329737e-16 1.6258760930649052 9.369066666666665
Co 0.0 0.0 7.0268
Co 1.40805 0.8129380465324526 11.711333333333332
Co 1.6313062012329737e-16 1.6258760930649052 2.3422666666666663
O 0.0 0.0 10.687622264
O 0.0 0.0 3.365977736
O 1.40805 0.8129380465324526 1.3185555973333332
O 1.40805 0.8129380465324526 8.050511069333334
O 1.6313062012329737e-16 1.6258760930649052 6.003088930666666
O 1.6313062012329737e-16 1.6258760930649052 12.735044402666666

K_POINTS automatic
6 6 6 1 1 1
```

### Key Points & Parameters:
- **Pseudo directory**: `pseudos/SSSP_1.3.0_PBE_efficiency/`
- **Energy cutoff (ecutwfc)**: 40.0 Ry
- **Density cutoff (ecutrho)**: 320.0 Ry
- **Cell Parameters** (in Angstrom):
  ```
  2.8161 0.0 1.7243639255394308e-16
  -1.4080499999999998 2.438814139597358 1.7243639255394308e-16
  0.0 0.0 14.0536
  ```

### Atomic Positions (in Angstrom):
```
Li 0.0 0.0 0.0
Li 1.40805 0.8129380465324526 4.684533333333333
Li 1.6313062012329737e-16 1.6258760930649052 9.369066666666665
Co 0.0 0.0 7.0268
Co 1.40805 0.8129380465324526 11.711333333333332
Co 1.6313062012329737e-16 1.6258760930649052 2.3422666666666663
O 0.0 0.0 10.687622264
O 0.0 0.0 3.365977736
O 1.40805 0.8129380465324526 1.3185555973333332
O 1.40805 0.8129380465324526 8.050511069333334
O 1.6313062012329737e-16 1.6258760930649052 6.003088930666666
O 1.6313062012329737e-16 1.6258760930649052 12.735044402666666
```

### Pseudopotential Files:
- `li_pbe_v1.4.uspp.F.UPF`
- `Co_pbe_v1.2.uspp.F.UPF`
- `O.pbe-n-kjpaw_psl.0.1.UPF`

This input file is ready to be used for a single-point energy calculation using Quantum Espresso.