Can you generate the Quantum Espresso input file for compound Ni1 for energy calculation             for PBE functional and efficiency mode?             The name of the parent folder with pseudopotentials is pseudos.            Determine the path to the folder with the correct pseudopotentials.            Get the list of names of files with pseudopotentials for the compound.            The directory with cutoffs is pseudo_cutoffs.             Read the structure file structure_files/Ni_ICSD_037502.cif to determine formula, atomic positions and unit cell vectors.            Choose a conventional unit cell if True is False, and convert it to primitive cell if True is True.             Check that the energy cutoff and density cutoff are not larger than the maximum cutoff values             for pseudopotentials used.            Now generate the Quantum Espresso input file for Ni1.

pseudos/SSSP_1.3.0_PBE_efficiency/
["ni_pbe_v1.4.uspp.F.UPF"]
Ni4
Ni 0.0 0.0 0.0
Ni -1.095406760816335e-16 1.788935 1.788935
Ni 1.788935 0.0 1.788935
Ni 1.788935 1.788935 2.19081352163267e-16

3.57787 0.0 2.19081352163267e-16
-2.19081352163267e-16 3.57787 2.19081352163267e-16
0.0 0.0 3.57787

{"max_ecutwfc": 45.0, "max_ecutrho": 360.0}
Here's the information gathered for generating the Quantum Espresso input file for the compound Ni1 using the PBE functional in efficiency mode:

### Pseudopotential Information
- **Path to Pseudopotentials:** `pseudos/SSSP_1.3.0_PBE_efficiency/`
- **Pseudopotential File:** `ni_pbe_v1.4.uspp.F.UPF`

### Compound Information
- **Formula:** Ni4
- **Atomic Positions (in Cartesian coordinates, Angstrom):**
  ```
  Ni 0.0 0.0 0.0
  Ni -1.095406760816335e-16 1.788935 1.788935
  Ni 1.788935 0.0 1.788935
  Ni 1.788935 1.788935 2.19081352163267e-16
  ```
- **Unit Cell Vectors (in Angstrom):**
  ```
  3.57787 0.0 2.19081352163267e-16
  -2.19081352163267e-16 3.57787 2.19081352163267e-16
  0.0 0.0 3.57787
  ```

### Cutoff Information
- **Maximum Energy Cutoff (ecutwfc):** 45.0 Ry
- **Maximum Density Cutoff (ecutrho):** 360.0 Ry

### Energy Cutoff and Density Cutoff Check
Assuming that the default values are:
- **Energy Cutoff (ecutwfc):** 40 Ry
- **Density Cutoff (ecutrho):** 320 Ry

Both of these values are below the maximum cutoffs, so they are acceptable.

### Quantum Espresso Input File Generation
Based on the gathered information, the Quantum Espresso input file for Ni1 will look as follows:

```plaintext
&CONTROL
  calculation = 'scf',
  prefix = 'Ni1',
  outdir = './tmp/',
  pseudo_dir = 'pseudos/SSSP_1.3.0_PBE_efficiency/',
  tprnfor = .true.,
  tstress = .true.,
  nstep = 100,
/

&SYSTEM
  ibrav = 0,
  nat = 4,
  ntyp = 1,
  ecutwfc = 40.0,
  ecutrho = 320.0,
  occupations = 'smearing',
  smearing = 'gaussian',
  degauss = 0.01,
/

&ELECTRONS
  conv_thr = 1.0d-8,
  mixing_beta = 0.7,
/

ATOMIC_SPECIES
 Ni  58.6934  ni_pbe_v1.4.uspp.F.UPF

ATOMIC_POSITIONS (angstrom)
 Ni 0.0 0.0 0.0
 Ni -1.095406760816335e-16 1.788935 1.788935
 Ni 1.788935 0.0 1.788935
 Ni 1.788935 1.788935 2.19081352163267e-16

K_POINTS automatic
  4 4 4 1 1 1
```

This input file is ready to be used for single point energy calculations with Quantum Espresso for the compound Ni1. Adjust the cutoffs if necessary based on your computational resources.
