Can you generate the Quantum Espresso input file for compound Si2 for energy calculation             for PBE functional and efficiency mode?             The name of the parent folder with pseudopotentials is pseudos.            Determine the path to the folder with the correct pseudopotentials.            Get the list of names of files with pseudopotentials for the compound.            The directory with cutoffs is pseudo_cutoffs.             Read the structure file structure_files/Si_ICSD_051688.cif to determine formula, atomic positions and unit cell vectors.            Choose a conventional unit cell if True is False, and convert it to primitive cell if True is True.             Check that the energy cutoff and density cutoff are not larger than the maximum cutoff values             for pseudopotentials used.            Now generate the Quantum Espresso input file for Si2.

pseudos/SSSP_1.3.0_PBE_efficiency/
["Si.pbe-n-rrkjus_psl.1.0.0.UPF"]
{"max_ecutwfc": 30.0, "max_ecutrho": 240.0}
Si2
Si 1.3576325000000002 1.3576325000000005 1.3576325000000011
Si 0.0 0.0 0.0

-1.662620295543419e-16 2.715265 2.715265
2.715265 0.0 2.715265
2.715265 2.715265 3.325240591086838e-16

Based on the provided information, here is the Quantum Espresso input file for a single-point energy calculation of the Si2 compound using the PBE functional and efficiency mode:

```plaintext
&control
  calculation = 'scf'
  prefix = 'Si2'
  pseudo_dir = 'pseudos/SSSP_1.3.0_PBE_efficiency/'
  outdir = './out'
/

&system
  ibrav = 0
  nat = 2
  ntyp = 1
  ecutwfc = 30.0
  ecutrho = 240.0
/

&electrons
  conv_thr = 1.0d-8
  mixing_beta = 0.7
/

ATOMIC_SPECIES
  Si  28.0855  Si.pbe-n-rrkjus_psl.1.0.0.UPF

CELL_PARAMETERS angstrom
  -1.662620295543419e-16 2.715265 2.715265
  2.715265 0.0 2.715265
  2.715265 2.715265 3.325240591086838e-16

ATOMIC_POSITIONS angstrom
  Si 1.3576325000000002 1.3576325000000005 1.3576325000000011
  Si 0.0 0.0 0.0

K_POINTS automatic
  6 6 6 0 0 0
```

### Summary of Key Points:
- **Pseudopotential Directory**: `pseudos/SSSP_1.3.0_PBE_efficiency/`
- **Pseudopotential Files**: `Si.pbe-n-rrkjus_psl.1.0.0.UPF`
- **Maximum Energy Cutoff (ecutwfc)**: 30.0 Ry
- **Maximum Density Cutoff (ecutrho)**: 240.0 Ry
- **Atomic Positions**: Converted to the primitive cell
- **Cell Vectors**: Converted to the primitive cell

You can use this input file to perform the single-point energy calculation with Quantum Espresso.
