Can you generate the Quantum Espresso input file for compound Li1 Co1 O2 for energy calculation             for PBE functional and efficiency mode?             The name of the parent folder with pseudopotentials is pseudos.            Determine the list of pseudopotential files.            The directory with cutoffs is pseudo_cutoffs. Read the structure file structure_files/ICSD_CollCode51182.cif for atomic positions and unit cell vectors.            Choose a conventional unit cell if True is False, and convert it to primitive cell if True is True.             Determine the path to the folder with the correct pseudopotentials.            Get the list of names of files with pseudopotentials for the compound.            Check that the energy cutoff and density cutoff are not larger than the maximum cutoff values             for pseudopotentials used.

Li1 Co1 O2
Li 0.0 0.0 0.0
Co -4.23672208427206e-16 -2.3601965860208296e-16 7.026799999999998
O 3.5760388428229817e-17 7.221697277103504e-17 10.687622263999996
O -2.9005624568867474e-18 -3.4077372766854575e-17 3.3659777359999996

-7.550441753304919e-18 1.625876093064905 4.684533333333332
1.40805 -0.8129380465324525 4.684533333333332
-1.40805 -0.8129380465324524 4.684533333333332

{"max_ecutwfc": 40.0, "max_ecutrho": 320.0}
pseudos/SSSP_1.3.0_PBE_efficiency/
["li_pbe_v1.4.uspp.F.UPF", "Co_pbe_v1.2.uspp.F.UPF", "O.pbe-n-kjpaw_psl.0.1.UPF"]
Based on the details provided and the obtained information, here is the Quantum Espresso input file for a single point energy calculation of Li1Co1O2 using the PBE functional and efficiency mode.

### Pseudopotentials directory:
```
pseudos/SSSP_1.3.0_PBE_efficiency/
```

### Pseudopotentials files:
- `li_pbe_v1.4.uspp.F.UPF`
- `Co_pbe_v1.2.uspp.F.UPF`
- `O.pbe-n-kjpaw_psl.0.1.UPF`

### Structure:
- **Atomic positions (in Angstrom, Cartesian coordinates):**
```
Li 0.0 0.0 0.0
Co -4.23672208427206e-16 -2.3601965860208296e-16 7.026799999999998
O 3.5760388428229817e-17 7.221697277103504e-17 10.687622263999996
O -2.9005624568867474e-18 -3.4077372766854575e-17 3.3659777359999996
```

- **Unit cell vectors (in Angstrom):**
```
-7.550441753304919e-18 1.625876093064905 4.684533333333332
1.40805 -0.8129380465324525 4.684533333333332
-1.40805 -0.8129380465324524 4.684533333333332
```

- **Cutoff limits:**
  - Maximum energy cutoff (`ecutwfc`): 40.0 Ry
  - Maximum density cutoff (`ecutrho`): 320.0 Ry

### Quantum Espresso Input File:
```plaintext
&control
    calculation = 'scf',
    restart_mode = 'from_scratch',
    prefix = 'LiCoO2',
    pseudo_dir = 'pseudos/SSSP_1.3.0_PBE_efficiency/',
    outdir = './out',
    verbosity = 'high',
/

&system
    ibrav = 0,
    nat = 4,
    ntyp = 3,
    ecutwfc = 40.0,
    ecutrho = 320.0,
/

&electrons
    conv_thr = 1.0d-8,
    mixing_beta = 0.7,
/

ATOMIC_SPECIES
Li  6.941  li_pbe_v1.4.uspp.F.UPF
Co  58.933  Co_pbe_v1.2.uspp.F.UPF
O   15.999  O.pbe-n-kjpaw_psl.0.1.UPF

CELL_PARAMETERS angstrom
-7.550441753304919e-18 1.625876093064905 4.684533333333332
1.40805 -0.8129380465324525 4.684533333333332
-1.40805 -0.8129380465324524 4.684533333333332

ATOMIC_POSITIONS angstrom
Li 0.0 0.0 0.0
Co -4.23672208427206e-16 -2.3601965860208296e-16 7.026799999999998
O 3.5760388428229817e-17 7.221697277103504e-17 10.687622263999996
O -2.9005624568867474e-18 -3.4077372766854575e-17 3.3659777359999996

K_POINTS automatic
6 6 6 1 1 1
```

This input file is configured for a single point energy calculation using the Quantum Espresso software. The parameters have been set according to the provided and derived information.
