Can you generate the Quantum Espresso input file for compound Al4 O6 for energy calculation             for PBE functional and efficiency mode?             The name of the parent folder with pseudopotentials is pseudos.            Determine the path to the folder with the correct pseudopotentials.            Get the list of names of files with pseudopotentials for the compound.            The directory with cutoffs is pseudo_cutoffs.             Read the structure file structure_files/Al2O3_ICSD_009770.cif to determine formula, atomic positions and unit cell vectors.            Choose a conventional unit cell if True is False, and convert it to primitive cell if True is True.             Check that the energy cutoff and density cutoff are not larger than the maximum cutoff values             for pseudopotentials used.            Now generate the Quantum Espresso input file for Al4 O6.

pseudos/SSSP_1.3.0_PBE_efficiency/
["Al.pbe-n-kjpaw_psl.1.0.0.UPF", "O.pbe-n-kjpaw_psl.0.1.UPF"]
{"max_ecutwfc": 30.0, "max_ecutrho": 240.0}
Al4 O6
Al -3.195455589022344e-17 -4.587117801967994e-17 1.921136448000001
Al -3.468154119445899e-17 1.1709508930357098e-16 8.418486447999998
Al 7.690887393607681e-17 -2.9758452234001405e-16 11.073563551999996
Al 1.1913620667769464e-16 1.3254870816737893e-16 4.576213551999997
O 0.728625135 1.4865756730393183 7.580241666666665
O 0.9230997299999998 -1.3742957132655256 7.580241666666664
O -1.651724865 -0.11227995977379342 7.580241666666665
O -0.9230997300000007 1.3742957132655251 5.414458333333331
O 1.6517248650000003 0.11227995977379321 5.414458333333332
O -0.7286251350000001 -1.486575673039319 5.414458333333331

-4.404532294444152e-17 2.7485914265310507 4.3315666666666655
2.38035 -1.3742957132655254 4.3315666666666655
-2.38035 -1.3742957132655256 4.3315666666666655

Based on the gathered information, here's the Quantum Espresso input file for the single point energy calculation of Al4O6 using the PBE functional and efficiency mode:

**Path to the pseudopotentials folder:** `pseudos/SSSP_1.3.0_PBE_efficiency/`

**List of pseudopotential files:**
- `Al.pbe-n-kjpaw_psl.1.0.0.UPF`
- `O.pbe-n-kjpaw_psl.0.1.UPF`

**Maximum energy cutoff values:**
- `ecutwfc`: 30.0
- `ecutrho`: 240.0

### Quantum Espresso Input File

```plaintext
&CONTROL
    calculation = 'scf'
    prefix = 'Al4O6'
    outdir = './tmp'
    pseudo_dir = 'pseudos/SSSP_1.3.0_PBE_efficiency/'
    verbosity = 'high'
/

&SYSTEM
    ibrav = 0
    nat = 10
    ntyp = 2
    ecutwfc = 30.0
    ecutrho = 240.0
/

&ELECTRONS
    mixing_beta = 0.7
    conv_thr = 1.0d-8
/

ATOMIC_SPECIES
Al  26.9815  Al.pbe-n-kjpaw_psl.1.0.0.UPF
O   15.9994  O.pbe-n-kjpaw_psl.0.1.UPF

CELL_PARAMETERS angstrom
-4.404532294444152e-17 2.7485914265310507 4.3315666666666655
2.38035 -1.3742957132655254 4.3315666666666655
-2.38035 -1.3742957132655256 4.3315666666666655

ATOMIC_POSITIONS angstrom
Al -3.195455589022344e-17 -4.587117801967994e-17 1.921136448000001
Al -3.468154119445899e-17 1.1709508930357098e-16 8.418486447999998
Al 7.690887393607681e-17 -2.9758452234001405e-16 11.073563551999996
Al 1.1913620667769464e-16 1.3254870816737893e-16 4.576213551999997
O 0.728625135 1.4865756730393183 7.580241666666665
O 0.9230997299999998 -1.3742957132655256 7.580241666666664
O -1.651724865 -0.11227995977379342 7.580241666666665
O -0.9230997300000007 1.3742957132655251 5.414458333333331
O 1.6517248650000003 0.11227995977379321 5.414458333333332
O -0.7286251350000001 -1.486575673039319 5.414458333333331

K_POINTS automatic
4 4 4 1 1 1
```

This input file is set up for a self-consistent field (SCF) calculation. Make sure the pseudopotential files are available in the specified pseudopotentials directory before running the calculation.
