Can you generate the Quantum Espresso input file for compound Cu1 for energy calculation             for PBE functional and efficiency mode?             The name of the parent folder with pseudopotentials is pseudos.            Determine the path to the folder with the correct pseudopotentials.            Get the list of names of files with pseudopotentials for the compound.            The directory with cutoffs is pseudo_cutoffs.             Read the structure file structure_files/Cu_ICSD_007954.cif to determine formula, atomic positions and unit cell vectors.            Choose a conventional unit cell if True is False, and convert it to primitive cell if True is True.             Check that the energy cutoff and density cutoff are not larger than the maximum cutoff values             for pseudopotentials used.            Now generate the Quantum Espresso input file for Cu1.

pseudos/SSSP_1.3.0_PBE_efficiency/
["Cu.paw.z_11.ld1.psl.v1.0.0-low.upf"]
{"max_ecutwfc": 90.0, "max_ecutrho": 720.0}
Cu4
Cu 0.0 0.0 0.0
Cu -1.1004063813738542e-16 1.7971 1.7971
Cu 1.7971 0.0 1.7971
Cu 1.7971 1.7971 2.2008127627477083e-16

3.5942 0.0 2.2008127627477083e-16
-2.2008127627477083e-16 3.5942 2.2008127627477083e-16
0.0 0.0 3.5942

Here are the details for generating the Quantum Espresso input file for the compound Cu1 using the PBE functional in efficiency mode:

### Pseudopotential Directory
- **Path**: `pseudos/SSSP_1.3.0_PBE_efficiency/`

### Pseudopotential Files
- **Files**: `Cu.paw.z_11.ld1.psl.v1.0.0-low.upf`

### Maximum Energy and Density Cutoffs
- **Maximum Energy Cutoff (ecutwfc)**: 90.0 Ry
- **Maximum Density Cutoff (ecutrho)**: 720.0 Ry

### Compound Information
- **Formula**: Cu4
- **Atomic Positions** (in Cartesian coordinates, Angstrom):
  ```
  Cu 0.0 0.0 0.0
  Cu -1.1004063813738542e-16 1.7971 1.7971
  Cu 1.7971 0.0 1.7971
  Cu 1.7971 1.7971 2.2008127627477083e-16
  ```

### Unit Cell Vectors (in Angstrom):
```
3.5942 0.0 2.2008127627477083e-16
-2.2008127627477083e-16 3.5942 2.2008127627477083e-16
0.0 0.0 3.5942
```

### Energy Cutoff and Density Cutoff
Ensure that the energy cutoff and density cutoff are not larger than the maximum cutoff values:
- Set **ecutwfc** ≤ 90.0 Ry
- Set **ecutrho** ≤ 720.0 Ry

### Quantum Espresso Input File
Here is the generated Quantum Espresso input file for the compound Cu1:

```plaintext
&CONTROL
    calculation = 'scf',
    prefix = 'Cu1',
    outdir = './tmp/',
    pseudo_dir = 'pseudos/SSSP_1.3.0_PBE_efficiency/',
    tprnfor = .true.,
    tprnvet = .true.,
/
&SYSTEM
    ibrav = 0, 
    nat = 4,
    ntyp = 1,
    ecutwfc = 90.0,
    ecutrho = 720.0,
/
&ELECTRONS
    conv_thr = 1.0d-8,
    mixing_beta = 0.7,
/
ATOMIC_SPECIES
Cu  63.546  Cu.paw.z_11.ld1.psl.v1.0.0-low.upf
ATOMIC_POSITIONS (angstrom)
Cu 0.0 0.0 0.0
Cu -1.1004063813738542e-16 1.7971 1.7971
Cu 1.7971 0.0 1.7971
Cu 1.7971 1.7971 2.2008127627477083e-16
K_POINTS automatic
4 4 4 0 0 0
```

You can adjust the `ecutwfc` and `ecutrho` values if needed, ensuring they do not exceed the maximum cutoff limits.
