Can you generate the Quantum Espresso input file for compound Si2 for energy calculation             for PBE functional and efficiency mode?             The name of the parent folder with pseudopotentials is pseudos.            Determine the path to the folder with the correct pseudopotentials.            Get the list of names of files with pseudopotentials for the compound.            The directory with cutoffs is pseudo_cutoffs.             Read the structure file structure_files/Si_ICSD_051688.cif to determine formula, atomic positions and unit cell vectors.            Choose a conventional unit cell if True is False, and convert it to primitive cell if True is True.             Check that the energy cutoff and density cutoff are not larger than the maximum cutoff values             for pseudopotentials used.            Now generate the Quantum Espresso input file for Si2.

pseudos/SSSP_1.3.0_PBE_efficiency/
["Si.pbe-n-rrkjus_psl.1.0.0.UPF"]
Si8
Si 1.3576325 1.3576325 1.3576325000000002
Si 0.0 0.0 0.0
Si 1.3576324999999998 4.0728975 4.072897500000001
Si -1.662620295543419e-16 2.715265 2.715265
Si 4.0728975 1.3576325 4.072897500000001
Si 2.715265 0.0 2.715265
Si 4.0728975 4.0728975 1.3576325000000005
Si 2.715265 2.715265 3.325240591086838e-16

5.43053 0.0 3.325240591086838e-16
-3.325240591086838e-16 5.43053 3.325240591086838e-16
0.0 0.0 5.43053

{"max_ecutwfc": 30.0, "max_ecutrho": 240.0}
Based on the gathered information, here is the Quantum Espresso input file for the compound Si2 using the PBE functional in efficiency mode.

### Quantum Espresso Input File

```plaintext
&CONTROL
    calculation = 'scf',
    prefix = 'Si2',
    outdir = './tmp/',
    pseudo_dir = 'pseudos/SSSP_1.3.0_PBE_efficiency/',
    tprnfor = .true.,
    tprnenergy = .true.,
/

&SYSTEM
    ibrav = 2, ! cubic
    a = 5.43053,
    nat = 8,
    ntyp = 1,
    ecutwfc = 30.0, ! This should be <= max_ecutwfc
    ecutrho = 240.0, ! This should be <= max_ecutrho
/

&ELECTRONS
    conv_thr = 1.0d-8,
/

ATOMIC_SPECIES
Si 28.0855 Si.pbe-n-rrkjus_psl.1.0.0.UPF

ATOMIC_POSITIONS (angstrom)
Si 1.3576325 1.3576325 1.3576325
Si 0.0 0.0 0.0
Si 1.3576325 4.0728975 4.0728975
Si 0.0 2.715265 2.715265
Si 4.0728975 1.3576325 4.0728975
Si 2.715265 0.0 2.715265
Si 4.0728975 4.0728975 1.3576325
Si 2.715265 2.715265 0.0

K_POINTS automatic
4 4 4 1 1 1
```

### Notes:
1. **Pseudopotentials**: The pseudopotential file used is `Si.pbe-n-rrkjus_psl.1.0.0.UPF`.
2. **Cutoff Values**: The energy cutoff (`ecutwfc`) is set to 30.0 Ry and the density cutoff (`ecutrho`) is set to 240.0 Ry, which are within the maximum limits provided by the pseudopotentials.
3. **Atomic Positions and Cell Vectors**: The atomic positions are taken from the provided CIF file, and the conventional unit cell is used since the primitive flag is set to false. 
4. **K-Points**: A 4x4x4 Monkhorst-Pack grid is used for the k-point sampling.

Make sure to adjust the paths and directories as per your working environment when running this input file in Quantum Espresso.
