plaintext
&control
    calculation = 'scf'
    prefix = 'CaO'
    pseudo_dir = '/path/to/pseudo_potentials'
    outdir = './tmp'
/
&system
    ibrav = 2
    celldm(1) = 7.0
    nat = 2
    ntyp = 2
    ecutwfc = 40
/
&electrons
/
ATOMIC_SPECIES
Ca 40.08 Ca.pbe-spn-kjpaw_psl.1.0.0.UPF
O 16.00 O.pbe-n-kjpaw_psl.1.0.0.UPF
ATOMIC_POSITIONS {crystal}
Ca 0.0 0.0 0.0
O 0.5 0.5 0.5
K_POINTS {automatic}
4 4 4 0 0 0
